p tdp 64 63
6 29
63 38
23 63
57 51
21 20
39 48
51 10
62 45
20 1
47 6
40 61
50 3
60 55
4 36
6 26
61 64
48 18
44 46
22 43
35 60
2 57
42 9
51 1
55 45
61 12
49 27
41 29
9 8
30 15
32 56
31 41
17 41
44 16
31 44
7 64
26 5
18 54
9 33
25 28
11 59
15 37
9 34
23 43
58 62
15 13
54 14
19 43
12 52
44 11
53 6
1 4
4 61
50 24
33 56
28 49
49 15
36 60
6 39
49 8
22 48
37 50
27 23
29 55
